30
frame 1
N 1.328 0.000 0.000
CA 2.093 0.001 -1.242
C 1.587 -1.079 -2.194
N 0.854 -0.658 -3.218
CA 0.308 -1.588 -4.200
C 1.400 -2.496 -4.757
N 1.032 -3.736 -5.060
CA 1.978 -4.704 -5.602
C 1.614 -5.076 -7.036
N 1.860 -4.146 -7.970
CA 1.565 -4.353 -9.391
C 2.491 -5.382 -10.031
N 3.607 -5.663 -9.365
CA 4.575 -6.629 -9.871
C 3.938 -8.007 -10.026
N 3.524 -8.590 -8.905
CA 2.901 -9.908 -8.914
C 1.434 -9.819 -9.319
N 0.620 -9.224 -8.452
CA -0.795 -9.085 -8.739
C -1.649 -9.149 -7.488
N -1.180 -8.512 -6.420
CA -1.906 -8.502 -5.156
C -2.126 -7.077 -4.660
N -3.377 -6.747 -4.362
CA -3.721 -5.415 -3.876
C -3.164 -5.186 -2.475
N -2.010 -4.533 -2.402
CA -1.371 -4.252 -1.122
C -1.425 -2.762 -0.801
30
frame 2
N 0.680 1.109 -0.876
CA 1.665 0.432 -1.710
C 1.024 -0.714 -2.488
N 0.965 -0.564 -3.807
CA 0.376 -1.584 -4.666
C 1.431 -2.586 -5.125
N 1.003 -3.822 -5.354
CA 1.910 -4.875 -5.799
C 1.558 -5.334 -7.211
N 1.872 -4.488 -8.204
CA 1.598 -4.785 -9.613
C 2.484 -5.902 -10.153
N 3.563 -6.196 -9.434
CA 4.490 -7.244 -9.842
C 3.832 -8.618 -9.755
N 2.872 -8.751 -8.845
CA 2.165 -10.012 -8.659
C 0.690 -9.873 -9.018
N -0.028 -9.062 -8.247
CA -1.442 -8.858 -8.501
C -2.273 -8.912 -7.234
N -1.966 -8.029 -6.289
CA -2.688 -7.982 -5.024
C -2.522 -6.626 -4.346
N -3.573 -6.174 -3.673
CA -3.543 -4.891 -2.980
C -2.909 -5.033 -1.600
N -1.585 -5.132 -1.569
CA -0.858 -5.275 -0.313
C -1.251 -4.177 0.671
30
frame 3
N 1.088 1.107 -0.686
CA 1.973 0.704 -1.773
C 1.390 -0.479 -2.539
N 1.027 -0.241 -3.795
CA 0.454 -1.285 -4.636
C 1.515 -2.307 -5.033
N 1.090 -3.553 -5.208
CA 2.002 -4.626 -5.590
C 1.674 -5.145 -6.987
N 2.009 -4.345 -8.010
CA 1.759 -4.703 -9.409
C 2.650 -5.846 -9.883
N 3.751 -6.066 -9.172
CA 4.687 -7.129 -9.522
C 3.985 -8.483 -9.551
N 3.084 -8.698 -8.597
CA 2.345 -9.951 -8.511
C 0.870 -9.742 -8.837
N 0.357 -8.561 -8.506
CA -1.037 -8.257 -8.772
C -1.926 -8.512 -7.570
N -1.686 -7.773 -6.491
CA -2.469 -7.925 -5.272
C -2.443 -6.648 -4.439
N -3.548 -6.370 -3.757
CA -3.650 -5.179 -2.921
C -3.160 -5.463 -1.506
N -1.858 -5.307 -1.294
CA -1.263 -5.549 0.015
C -1.625 -4.435 0.993
30
frame 4
N 0.265 1.030 -0.654
CA 1.201 0.339 -1.534
C 0.464 -0.599 -2.484
N 1.046 -0.819 -3.657
CA 0.445 -1.694 -4.657
C 1.453 -2.724 -5.156
N 0.949 -3.875 -5.586
CA 1.804 -4.943 -6.091
C 1.557 -5.181 -7.577
N 2.029 -4.243 -8.413
CA 1.871 -4.328 -9.868
C 2.718 -5.439 -10.479
N 3.695 -5.920 -9.717
CA 4.575 -6.984 -10.186
C 3.837 -8.318 -10.236
N 3.073 -8.605 -9.186
CA 2.316 -9.848 -9.109
C 0.824 -9.596 -9.291
N 0.247 -8.805 -8.391
CA -1.169 -8.499 -8.472
C -1.878 -8.683 -7.145
N -1.545 -7.837 -6.175
CA -2.153 -7.911 -4.853
C -2.354 -6.521 -4.261
N -3.289 -6.412 -3.324
CA -3.578 -5.136 -2.678
C -3.236 -5.188 -1.193
N -1.989 -4.865 -0.867
CA -1.535 -4.877 0.519
C -2.204 -3.766 1.321
30
frame 5
N 0.636 0.901 -0.542
CA 1.562 0.317 -1.505
C 0.852 -0.696 -2.397
N 1.103 -0.606 -3.699
CA 0.487 -1.512 -4.661
C 1.507 -2.512 -5.197
N 1.027 -3.691 -5.578
CA 1.895 -4.734 -6.110
C 1.577 -5.010 -7.576
N 1.966 -4.072 -8.453
CA 1.732 -4.192 -9.895
C 2.587 -5.282 -10.533
N 3.621 -5.711 -9.817
CA 4.515 -6.750 -10.314
C 3.903 -8.134 -10.120
N 3.180 -8.306 -9.017
CA 2.543 -9.580 -8.712
C 1.043 -9.522 -8.977
N 0.327 -8.774 -8.142
CA -1.109 -8.649 -8.304
C -1.861 -8.881 -7.008
N -1.578 -8.054 -6.005
CA -2.231 -8.175 -4.708
C -2.347 -6.819 -4.022
N -3.525 -6.536 -3.478
CA -3.766 -5.271 -2.792
C -3.462 -5.393 -1.303
N -2.188 -5.263 -0.951
CA -1.766 -5.362 0.441
C -2.567 -4.408 1.322
30
frame 6
N 1.137 1.559 -1.072
CA 2.047 0.844 -1.960
C 1.344 -0.334 -2.627
N 1.269 -0.296 -3.952
CA 0.622 -1.359 -4.712
C 1.649 -2.358 -5.235
N 1.211 -3.596 -5.438
CA 2.090 -4.646 -5.938
C 1.655 -5.103 -7.327
N 1.899 -4.251 -8.334
CA 1.540 -4.546 -9.725
C 2.400 -5.654 -10.323
N 3.522 -5.944 -9.670
CA 4.431 -6.983 -10.140
C 3.816 -8.368 -9.957
N 2.922 -8.488 -8.981
CA 2.262 -9.756 -8.700
C 0.774 -9.686 -9.025
N 0.112 -8.646 -8.525
CA -1.308 -8.482 -8.774
C -2.146 -8.730 -7.536
N -1.862 -7.986 -6.472
CA -2.594 -8.132 -5.220
C -2.463 -6.881 -4.358
N -3.579 -6.445 -3.783
CA -3.588 -5.260 -2.934
C -3.059 -5.584 -1.541
N -1.805 -5.225 -1.291
CA -1.180 -5.480 0.002
C -1.463 -4.341 0.978
30
frame 7
N 0.600 1.636 -1.023
CA 1.553 0.971 -1.903
C 0.902 -0.208 -2.620
N 1.030 -0.232 -3.942
CA 0.453 -1.303 -4.746
C 1.528 -2.293 -5.186
N 1.113 -3.525 -5.455
CA 2.038 -4.567 -5.887
C 1.698 -5.045 -7.295
N 1.997 -4.203 -8.295
CA 1.732 -4.518 -9.702
C 2.640 -5.623 -10.230
N 3.764 -5.833 -9.551
CA 4.717 -6.861 -9.954
C 4.072 -8.243 -9.925
N 3.062 -8.401 -9.076
CA 2.360 -9.672 -8.949
C 0.866 -9.503 -9.199
N 0.211 -8.727 -8.341
CA -1.215 -8.498 -8.487
C -1.978 -8.761 -7.205
N -1.672 -7.990 -6.166
CA -2.333 -8.146 -4.877
C -2.371 -6.826 -4.115
N -3.474 -6.583 -3.417
CA -3.635 -5.357 -2.644
C -3.240 -5.575 -1.188
N -2.024 -5.168 -0.842
CA -1.525 -5.321 0.520
C -2.026 -4.191 1.414
30
frame 8
N 0.839 -0.319 0.004
CA 1.719 -0.490 -1.146
C 1.133 -1.493 -2.136
N 0.941 -1.049 -3.373
CA 0.386 -1.905 -4.415
C 1.433 -2.889 -4.927
N 0.969 -4.029 -5.428
CA 1.864 -5.054 -5.952
C 1.626 -5.272 -7.443
N 2.070 -4.306 -8.261
CA 1.916 -4.369 -9.718
C 2.796 -5.444 -10.348
N 3.791 -5.904 -9.595
CA 4.703 -6.932 -10.082
C 3.975 -8.259 -10.276
N 3.000 -8.523 -9.412
CA 2.227 -9.757 -9.485
C 0.733 -9.466 -9.573
N 0.200 -8.817 -8.542
CA -1.213 -8.489 -8.522
C -1.855 -8.767 -7.177
N -1.610 -7.885 -6.213
CA -2.167 -8.042 -4.875
C -2.344 -6.691 -4.191
N -3.463 -6.528 -3.495
CA -3.752 -5.282 -2.793
C -3.492 -5.427 -1.298
N -2.605 -6.350 -0.942
CA -2.269 -6.589 0.456
C -3.528 -6.811 1.289
30
frame 9
N 0.510 1.231 -0.711
CA 1.411 0.510 -1.602
C 0.635 -0.437 -2.512
N 1.208 -0.733 -3.673
CA 0.571 -1.624 -4.635
C 1.546 -2.696 -5.114
N 1.003 -3.813 -5.583
CA 1.823 -4.914 -6.074
C 1.506 -5.220 -7.534
N 1.932 -4.321 -8.434
CA 1.704 -4.473 -9.874
C 2.525 -5.609 -10.475
N 3.533 -6.059 -9.735
CA 4.394 -7.142 -10.197
C 3.626 -8.460 -10.257
N 2.973 -8.809 -9.152
CA 2.203 -10.043 -9.078
C 0.707 -9.765 -9.177
N 0.184 -9.013 -8.214
CA -1.230 -8.687 -8.212
C -1.877 -8.919 -6.862
N -1.634 -8.007 -5.925
CA -2.195 -8.119 -4.585
C -2.182 -6.773 -3.870
N -3.364 -6.286 -3.512
CA -3.488 -5.008 -2.820
C -2.985 -5.116 -1.385
N -1.755 -4.668 -1.158
CA -1.157 -4.716 0.171
C -1.516 -3.470 0.975
30
frame 10
N 1.199 0.696 -0.389
CA 2.010 0.407 -1.566
C 1.386 -0.711 -2.395
N 1.196 -0.448 -3.683
CA 0.607 -1.430 -4.585
C 1.669 -2.384 -5.122
N 1.269 -3.625 -5.371
CA 2.185 -4.635 -5.888
C 1.789 -5.057 -7.299
N 2.040 -4.171 -8.274
CA 1.716 -4.429 -9.681
C 2.609 -5.503 -10.293
N 3.717 -5.798 -9.622
CA 4.654 -6.808 -10.102
C 4.022 -8.196 -10.068
N 3.050 -8.376 -9.179
CA 2.365 -9.656 -9.044
C 0.869 -9.508 -9.296
N 0.264 -8.503 -8.670
CA -1.158 -8.271 -8.841
C -1.945 -8.540 -7.573
N -1.726 -7.712 -6.556
CA -2.418 -7.867 -5.283
C -2.678 -6.513 -4.631
N -3.444 -6.522 -3.546
CA -3.767 -5.294 -2.829
C -3.462 -5.436 -1.341
N -2.192 -5.652 -1.020
CA -1.770 -5.808 0.367
C -2.271 -4.648 1.222
30
frame 11
N 1.050 1.226 -0.388
CA 1.859 0.779 -1.515
C 1.211 -0.412 -2.213
N 1.125 -0.339 -3.536
CA 0.525 -1.410 -4.324
C 1.589 -2.388 -4.813
N 1.188 -3.640 -5.005
CA 2.105 -4.673 -5.472
C 1.704 -5.170 -6.858
N 1.947 -4.335 -7.879
CA 1.619 -4.667 -9.268
C 2.512 -5.769 -9.828
N 3.628 -6.021 -9.150
CA 4.566 -7.051 -9.581
C 3.929 -8.435 -9.504
N 2.941 -8.577 -8.625
CA 2.250 -9.848 -8.451
C 0.790 -9.744 -8.879
N 0.215 -8.555 -8.718
CA -1.171 -8.346 -9.093
C -2.121 -8.519 -7.925
N -1.646 -8.195 -6.726
CA -2.459 -8.319 -5.523
C -2.481 -7.014 -4.737
N -3.622 -6.716 -4.125
CA -3.773 -5.496 -3.341
C -3.331 -5.718 -1.899
N -2.028 -5.615 -1.662
CA -1.476 -5.807 -0.326
C -2.128 -4.857 0.675
30
frame 12
N 0.680 1.227 -0.803
CA 1.652 0.646 -1.722
C 1.029 -0.494 -2.523
N 0.986 -0.327 -3.840
CA 0.416 -1.340 -4.720
C 1.486 -2.323 -5.186
N 1.067 -3.550 -5.473
CA 1.988 -4.585 -5.930
C 1.677 -4.992 -7.367
N 2.009 -4.108 -8.319
CA 1.774 -4.353 -9.745
C 2.683 -5.443 -10.303
N 3.754 -5.744 -9.576
CA 4.702 -6.768 -10.000
C 4.077 -8.158 -9.909
N 3.123 -8.313 -8.997
CA 2.447 -9.591 -8.808
C 0.958 -9.476 -9.113
N 0.252 -8.691 -8.305
CA -1.174 -8.511 -8.507
C -1.975 -8.768 -7.246
N -1.747 -7.949 -6.224
CA -2.451 -8.093 -4.956
C -2.447 -6.786 -4.172
N -3.584 -6.461 -3.567
CA -3.711 -5.237 -2.785
C -3.271 -5.464 -1.343
N -1.965 -5.398 -1.110
CA -1.416 -5.599 0.225
C -1.972 -4.569 1.204
30
frame 13
N 1.238 1.440 -0.971
CA 2.103 0.890 -2.008
C 1.450 -0.313 -2.681
N 1.201 -0.192 -3.981
CA 0.578 -1.268 -4.742
C 1.609 -2.317 -5.147
N 1.149 -3.549 -5.334
CA 2.029 -4.644 -5.724
C 1.688 -5.143 -7.124
N 2.046 -4.345 -8.141
CA 1.787 -4.685 -9.543
C 2.645 -5.850 -10.026
N 3.689 -6.164 -9.265
CA 4.588 -7.258 -9.617
C 3.907 -8.608 -9.414
N 2.983 -8.661 -8.459
CA 2.260 -9.891 -8.163
C 0.792 -9.775 -8.557
N 0.245 -8.569 -8.434
CA -1.146 -8.346 -8.782
C -2.065 -8.432 -7.580
N -1.555 -8.038 -6.417
CA -2.337 -8.075 -5.188
C -2.302 -6.728 -4.474
N -3.370 -6.424 -3.745
CA -3.461 -5.166 -3.012
C -2.845 -5.299 -1.623
N -2.828 -6.521 -1.103
CA -2.270 -6.782 0.218
C -2.991 -5.965 1.286
30
frame 14
N 0.489 1.551 -0.599
CA 1.364 0.760 -1.456
C 0.556 -0.207 -2.316
N 1.175 -0.695 -3.385
CA 0.514 -1.628 -4.291
C 1.514 -2.622 -4.874
N 1.028 -3.812 -5.208
CA 1.878 -4.852 -5.777
C 1.478 -5.152 -7.218
N 1.809 -4.225 -8.129
CA 1.494 -4.367 -9.554
C 2.319 -5.461 -10.224
N 3.383 -5.889 -9.552
CA 4.253 -6.931 -10.084
C 3.572 -8.295 -10.017
N 3.271 -8.741 -8.801
CA 2.621 -10.030 -8.600
C 1.162 -9.984 -9.040
N 0.393 -9.087 -8.432
CA -1.012 -8.959 -8.776
C -1.874 -8.623 -7.575
N -1.482 -9.124 -6.408
CA -2.228 -8.875 -5.180
C -2.285 -7.385 -4.864
N -3.386 -6.956 -4.259
CA -3.565 -5.553 -3.901
C -2.964 -5.260 -2.530
N -1.733 -4.761 -2.523
CA -1.046 -4.440 -1.278
C -1.430 -3.047 -0.787
30
frame 15
N 1.889 0.536 -0.385
CA 2.594 0.303 -1.640
C 1.952 -0.839 -2.422
N 1.356 -0.506 -3.561
CA 0.703 -1.502 -4.402
C 1.717 -2.499 -4.954
N 1.260 -3.721 -5.204
CA 2.125 -4.767 -5.735
C 1.697 -5.163 -7.145
N 1.977 -4.283 -8.118
CA 1.630 -4.518 -9.522
C 2.467 -5.628 -10.149
N 3.567 -5.978 -9.488
CA 4.453 -7.025 -9.983
C 3.795 -8.397 -9.862
N 2.873 -8.523 -8.913
CA 2.170 -9.781 -8.692
C 0.674 -9.626 -8.939
N 0.091 -8.575 -8.371
CA -1.330 -8.332 -8.543
C -2.104 -8.480 -7.248
N -1.589 -7.878 -6.181
CA -2.237 -7.948 -4.877
C -2.557 -6.555 -4.347
N -3.515 -6.482 -3.430
CA -3.915 -5.208 -2.843
C -3.749 -5.231 -1.328
N -2.501 -5.243 -0.874
CA -2.207 -5.268 0.554
C -2.510 -3.917 1.196
30
frame 16
N 0.561 0.398 -0.309
CA 1.493 -0.200 -1.258
C 0.771 -1.161 -2.199
N 1.076 -1.057 -3.487
CA 0.456 -1.914 -4.491
C 1.477 -2.877 -5.090
N 0.995 -4.023 -5.559
CA 1.863 -5.029 -6.159
C 1.548 -5.205 -7.641
N 1.940 -4.211 -8.452
CA 1.709 -4.232 -9.899
C 2.563 -5.279 -10.607
N 3.606 -5.744 -9.926
CA 4.500 -6.748 -10.491
C 3.821 -8.113 -10.547
N 2.946 -8.372 -9.580
CA 2.230 -9.639 -9.517
C 0.722 -9.419 -9.502
N 0.225 -8.829 -8.419
CA -1.199 -8.571 -8.302
C -1.711 -8.779 -6.890
N -1.622 -7.736 -6.070
CA -2.077 -7.810 -4.688
C -2.362 -6.421 -4.128
N -3.397 -6.323 -3.302
CA -3.774 -5.050 -2.698
C -3.542 -5.072 -1.191
N -2.598 -5.900 -0.754
CA -2.281 -6.016 0.664
C -2.011 -4.645 1.276
30
frame 17
N 0.633 0.488 -0.550
CA 1.599 -0.075 -1.486
C 0.939 -1.107 -2.396
N 0.949 -0.832 -3.695
CA 0.350 -1.734 -4.672
C 1.394 -2.689 -5.243
N 0.942 -3.863 -5.669
CA 1.835 -4.865 -6.239
C 1.522 -5.096 -7.714
N 1.893 -4.122 -8.558
CA 1.662 -4.195 -10.003
C 2.537 -5.247 -10.677
N 3.586 -5.673 -9.980
CA 4.500 -6.676 -10.514
C 3.876 -8.067 -10.454
N 3.044 -8.294 -9.442
CA 2.383 -9.581 -9.269
C 0.869 -9.439 -9.367
N 0.276 -8.769 -8.383
CA -1.162 -8.575 -8.379
C -1.776 -8.818 -7.014
N -1.617 -7.852 -6.115
CA -2.158 -7.967 -4.766
C -2.293 -6.598 -4.109
N -3.399 -6.393 -3.404
CA -3.648 -5.126 -2.725
C -3.355 -5.240 -1.233
N -2.470 -6.165 -0.878
CA -2.104 -6.377 0.517
C -1.689 -5.065 1.177
30
frame 18
N 1.187 1.009 -0.789
CA 2.099 0.388 -1.743
C 1.401 -0.725 -2.518
N 1.272 -0.534 -3.827
CA 0.622 -1.519 -4.683
C 1.635 -2.526 -5.221
N 1.163 -3.733 -5.510
CA 2.025 -4.786 -6.034
C 1.638 -5.145 -7.465
N 1.968 -4.252 -8.409
CA 1.664 -4.452 -9.829
C 2.501 -5.565 -10.450
N 3.579 -5.939 -9.768
CA 4.462 -6.992 -10.254
C 3.782 -8.356 -10.169
N 2.855 -8.490 -9.226
CA 2.132 -9.741 -9.037
C 0.634 -9.548 -9.247
N 0.008 -8.793 -8.349
CA -1.417 -8.543 -8.455
C -2.147 -8.791 -7.150
N -1.905 -7.931 -6.165
CA -2.543 -8.063 -4.861
C -2.632 -6.715 -4.154
N -3.751 -6.479 -3.480
CA -3.960 -5.228 -2.760
C -3.817 -5.435 -1.256
N -3.045 -6.447 -0.873
CA -2.828 -6.752 0.536
C -2.374 -5.511 1.298
30
frame 19
N 1.043 1.024 -0.279
CA 1.828 0.621 -1.440
C 1.112 -0.472 -2.228
N 1.363 -0.513 -3.532
CA 0.742 -1.507 -4.399
C 1.784 -2.476 -4.950
N 1.352 -3.700 -5.234
CA 2.246 -4.721 -5.768
C 1.855 -5.092 -7.195
N 2.147 -4.189 -8.143
CA 1.835 -4.399 -9.559
C 2.701 -5.484 -10.189
N 3.792 -5.831 -9.513
CA 4.703 -6.857 -10.008
C 4.091 -8.247 -9.858
N 3.190 -8.389 -8.891
CA 2.532 -9.665 -8.641
C 1.073 -9.627 -9.080
N 0.270 -8.828 -8.383
CA -1.137 -8.716 -8.717
C -2.035 -8.874 -7.505
N -1.763 -8.094 -6.463
CA -2.551 -8.152 -5.239
C -2.705 -6.769 -4.618
N -3.553 -6.673 -3.600
CA -3.790 -5.406 -2.919
C -3.583 -5.549 -1.415
N -2.336 -5.409 -0.979
CA -2.004 -5.525 0.436
C -0.786 -4.675 0.782
30
frame 20
N 0.332 0.999 -0.764
CA 1.278 0.435 -1.719
C 0.562 -0.441 -2.742
N 1.288 -0.839 -3.781
CA 0.724 -1.679 -4.831
C 1.805 -2.535 -5.484
N 1.604 -3.848 -5.461
CA 2.560 -4.777 -6.053
C 1.954 -5.485 -7.261
N 1.837 -4.752 -8.378
CA 1.274 -5.289 -9.621
C 2.189 -6.319 -10.275
N 3.452 -6.329 -9.861
CA 4.427 -7.265 -10.408
C 3.912 -8.699 -10.320
N 3.185 -8.996 -9.248
CA 2.635 -10.330 -9.043
C 1.119 -10.331 -9.204
N 0.503 -9.177 -8.967
CA -0.939 -9.067 -9.092
C -1.629 -8.944 -7.748
N -1.107 -8.070 -6.893
CA -1.677 -7.861 -5.568
C -1.876 -6.377 -5.282
N -2.672 -6.078 -4.262
CA -2.943 -4.695 -3.885
C -2.056 -4.264 -2.722
N -2.038 -5.071 -1.667
CA -1.232 -4.771 -0.490
C 0.216 -4.490 -0.878
