30
average of 20 frames
N 0.869 0.942 -0.589
CA 1.755 0.429 -1.596
C 1.085 -0.646 -2.431
N 1.122 -0.574 -3.671
CA 0.517 -1.539 -4.573
C 1.557 -2.525 -5.091
N 1.121 -3.735 -5.386
CA 2.012 -4.770 -5.891
C 1.651 -5.154 -7.314
N 1.962 -4.268 -8.259
CA 1.679 -4.493 -9.671
C 2.551 -5.586 -10.274
N 3.630 -5.920 -9.588
CA 4.545 -6.952 -10.058
C 3.888 -8.323 -10.011
N 3.058 -8.545 -9.027
CA 2.367 -9.814 -8.869
C 0.880 -9.672 -9.132
N 0.249 -8.800 -8.440
CA -1.168 -8.587 -8.614
C -1.941 -8.744 -7.334
N -1.625 -8.033 -6.319
CA -2.294 -8.098 -5.035
C -2.388 -6.736 -4.389
N -3.444 -6.479 -3.676
CA -3.651 -5.213 -3.007
C -3.234 -5.297 -1.569
N -2.178 -5.435 -1.238
CA -1.678 -5.528 0.106
C -1.878 -4.487 0.831
